p cnf 136 464
-3 -4 0
3 -4 0
-2 -4 -5 0
2 4 -5 0
-2 4 5 0
2 -4 5 0
-6 1 0
-6 -5 0
-1 5 6 0
-2 8 -9 0
2 -8 -9 0
-2 -8 9 0
2 8 9 0
10 7 0
10 9 0
-7 -9 -10 0
-10 -3 -11 0
10 3 -11 0
-10 3 11 0
10 -3 11 0
-11 -12 -13 0
11 12 -13 0
-11 12 13 0
11 -12 13 0
-12 14 -15 0
12 -14 -15 0
-12 -14 15 0
12 14 15 0
-13 -15 -16 0
13 15 -16 0
-13 15 16 0
13 -15 16 0
17 -6 0
17 16 0
6 -16 -17 0
19 -3 0
19 -18 0
3 18 -19 0
-21 19 0
-21 20 0
-19 -20 21 0
-23 -10 0
-23 -22 0
10 22 23 0
25 -24 0
25 -22 0
24 22 -25 0
3 12 -26 0
-3 -12 -26 0
3 -12 26 0
-3 12 26 0
26 -20 -27 0
-26 20 -27 0
26 20 27 0
-26 -20 27 0
28 -25 0
28 27 0
25 -27 -28 0
29 -28 0
29 -1 0
28 1 -29 0
-29 24 -30 0
29 -24 -30 0
-29 -24 30 0
29 24 30 0
31 23 0
31 -30 0
-23 30 -31 0
33 -32 0
33 -14 0
32 14 -33 0
-35 33 0
-35 -34 0
-33 34 35 0
36 35 0
36 19 0
-35 -19 -36 0
37 31 0
37 -36 0
-31 36 -37 0
-38 -21 0
-38 -37 0
21 37 38 0
-39 3 0
-39 -27 0
-3 27 39 0
-40 3 0
-40 13 0
-3 -13 40 0
-41 -15 0
-41 24 0
15 -24 41 0
-42 -41 0
-42 15 0
41 -15 42 0
-43 42 0
-43 15 0
-42 -15 43 0
-44 -40 0
-44 -43 0
40 43 44 0
14 -2 -45 0
-14 2 -45 0
14 2 45 0
-14 -2 45 0
-46 -33 0
-46 45 0
33 -45 46 0
-13 -25 -47 0
13 25 -47 0
-13 25 47 0
13 -25 47 0
48 46 0
48 47 0
-46 -47 -48 0
-49 -48 0
-49 -29 0
48 29 49 0
50 -44 0
50 49 0
44 -49 -50 0
51 20 0
51 18 0
-20 -18 -51 0
-51 25 -52 0
51 -25 -52 0
-51 -25 52 0
51 25 52 0
-53 52 0
-53 -45 0
-52 45 53 0
-55 -34 0
-55 -54 0
34 54 55 0
56 2 0
56 55 0
-2 -55 -56 0
53 -56 -57 0
-53 56 -57 0
53 56 57 0
-53 -56 57 0
50 57 -58 0
-50 -57 -58 0
50 -57 58 0
-50 57 58 0
39 58 -59 0
-39 -58 -59 0
39 -58 59 0
-39 58 59 0
60 -54 0
60 -14 0
54 14 -60 0
7 -60 -61 0
-7 60 -61 0
7 60 61 0
-7 -60 61 0
-25 15 -62 0
25 -15 -62 0
-25 -15 62 0
25 15 62 0
-61 62 -63 0
61 -62 -63 0
-61 -62 63 0
61 62 63 0
-65 -63 0
-65 64 0
63 -64 65 0
-66 18 0
-66 -3 0
-18 3 66 0
67 51 0
67 -55 0
-51 55 -67 0
-67 52 -68 0
67 -52 -68 0
-67 -52 68 0
67 52 68 0
-8 -68 -69 0
8 68 -69 0
-8 68 69 0
8 -68 69 0
-66 -69 -70 0
66 69 -70 0
-66 69 70 0
66 -69 70 0
71 65 0
71 -70 0
-65 70 -71 0
72 -28 0
72 3 0
28 -3 -72 0
72 -4 -73 0
-72 4 -73 0
72 4 73 0
-72 -4 73 0
74 12 0
74 9 0
-12 -9 -74 0
34 -74 -75 0
-34 74 -75 0
34 74 75 0
-34 -74 75 0
-73 -75 -76 0
73 75 -76 0
-73 75 76 0
73 -75 76 0
-52 -3 -77 0
52 3 -77 0
-52 3 77 0
52 -3 77 0
76 77 -78 0
-76 -77 -78 0
76 -77 78 0
-76 77 78 0
12 -30 -79 0
-12 30 -79 0
12 30 79 0
-12 -30 79 0
10 27 -80 0
-10 -27 -80 0
10 -27 80 0
-10 27 80 0
79 80 -81 0
-79 -80 -81 0
79 -80 81 0
-79 80 81 0
-82 -78 0
-82 -81 0
78 81 82 0
-83 71 0
-83 82 0
-71 -82 83 0
59 -83 -84 0
-59 83 -84 0
59 83 84 0
-59 -83 84 0
-20 8 -85 0
20 -8 -85 0
-20 -8 85 0
20 8 85 0
86 -85 0
86 51 0
85 -51 -86 0
87 -54 0
87 15 0
54 -15 -87 0
88 -87 0
88 -19 0
87 19 -88 0
-89 -19 0
-89 -88 0
19 88 89 0
-90 29 0
-90 24 0
-29 -24 90 0
-90 68 -91 0
90 -68 -91 0
-90 -68 91 0
90 68 91 0
92 -89 0
92 -91 0
89 91 -92 0
-86 92 -93 0
86 -92 -93 0
-86 -92 93 0
86 92 93 0
94 84 0
94 93 0
-84 -93 -94 0
95 19 0
95 28 0
-19 -28 -95 0
-96 -94 0
-96 95 0
94 -95 96 0
97 -15 0
97 -12 0
15 12 -97 0
98 -32 0
98 19 0
32 -19 -98 0
99 97 0
99 -98 0
-97 98 -99 0
-100 -26 0
-100 33 0
26 -33 100 0
-101 -25 0
-101 -14 0
25 14 101 0
-102 -33 0
-102 101 0
33 -101 102 0
-100 -102 -103 0
100 102 -103 0
-100 102 103 0
100 -102 103 0
99 -103 -104 0
-99 103 -104 0
99 103 104 0
-99 -103 104 0
-96 -104 -105 0
96 104 -105 0
-96 104 105 0
96 -104 105 0
-38 105 -106 0
38 -105 -106 0
-38 -105 106 0
38 105 106 0
107 17 0
107 -106 0
-17 106 -107 0
108 -1 0
108 27 0
1 -27 -108 0
-109 -62 0
-109 -26 0
62 26 109 0
-108 -109 -110 0
108 109 -110 0
-108 109 110 0
108 -109 110 0
-111 107 0
-111 -110 0
-107 110 111 0
112 22 0
112 -23 0
-22 23 -112 0
-113 85 0
-113 112 0
-85 -112 113 0
-114 -2 0
-114 66 0
2 -66 114 0
115 101 0
115 20 0
-101 -20 -115 0
-114 -115 -116 0
114 115 -116 0
-114 115 116 0
114 -115 116 0
117 113 0
117 -116 0
-113 116 -117 0
118 -69 0
118 -10 0
69 10 -118 0
-118 9 -119 0
118 -9 -119 0
-118 -9 119 0
118 9 119 0
120 -54 0
120 13 0
54 -13 -120 0
122 -120 0
122 -121 0
120 121 -122 0
-123 -119 0
-123 -122 0
119 122 123 0
3 -47 -124 0
-3 47 -124 0
3 47 124 0
-3 -47 124 0
-125 -124 0
-125 -54 0
124 54 125 0
-126 51 0
-126 114 0
-51 -114 126 0
-125 -126 -127 0
125 126 -127 0
-125 126 127 0
125 -126 127 0
-128 -12 0
-128 1 0
12 -1 128 0
-127 -128 -129 0
127 128 -129 0
-127 128 129 0
127 -128 129 0
-130 -62 0
-130 9 0
62 -9 130 0
-131 129 0
-131 -130 0
-129 130 131 0
-132 -123 0
-132 -131 0
123 131 132 0
133 -117 0
133 -132 0
117 132 -133 0
-134 -62 0
-134 -54 0
62 54 134 0
-135 133 0
-135 -134 0
-133 134 135 0
-111 -135 -136 0
111 135 -136 0
-111 135 136 0
111 -135 136 0
1 -78 -120 96 72 6 0
133 8 -82 -32 0
66 -130 -74 0
-118 78 -56 99 94 0
-86 -62 -109 56 -11 0
58 8 -63 -30 0
-99 22 0
-69 -49 82 0
-77 -117 -30 -46 -113 0
39 134 -136 -81 4 0
-104 -51 -79 0
-86 95 58 1 104 68 0
-54 -78 118 122 -132 0
125 113 7 10 -75 0
-56 9 -118 95 53 0
104 12 -73 -57 106 0
-117 52 -58 50 93 -133 0
45 127 0
47 2 -33 -87 -106 0
82 60 -128 102 26 0
-87 -29 0
33 -6 0
-90 115 37 -72 0
-3 -100 -1 43 135 0
126 -116 5 23 0
-105 73 0
13 -24 109 17 -84 -105 0
-96 113 -40 110 38 -64 0
-8 62 -85 -115 0
-95 85 55 0
50 76 102 -119 -55 64 0
25 -30 0
-125 -17 -55 0
-51 20 109 0
20 -127 -14 111 -66 97 0
-20 -78 -114 -36 0
-106 -49 119 -24 0
-125 -39 64 -101 0
106 44 63 -136 -77 0
61 54 -58 -83 0
106 85 -65 -69 -93 -53 0
-105 51 -33 -82 134 0
29 79 0
-131 -46 0
-5 -42 -111 15 -17 0
125 65 12 41 0
-35 -99 0
-96 40 0
115 39 59 83 72 0
-133 1 0
23 83 84 -131 0
-92 90 4 -120 -34 0
-9 -43 -116 -98 0
98 -126 105 34 -94 0
90 108 22 0
-48 -23 77 0
127 -11 -62 16 119 0
-99 40 -25 127 0
28 47 41 -11 33 99 0
71 125 -53 0
136 0
